784 1568
1 2 3
1 29 5
2 3 4
2 30 3
3 4 3
3 31 2
4 5 5
4 32 3
5 6 3
5 33 5
6 7 5
6 34 1
7 8 5
7 35 4
8 9 2
8 36 2
9 10 5
9 37 1
10 11 1
10 38 4
11 12 1
11 39 2
12 13 1
12 40 2
13 14 5
13 41 2
14 15 1
14 42 4
15 16 1
15 43 2
16 17 1
16 44 3
17 18 4
17 45 2
18 19 1
18 46 5
19 20 1
19 47 1
20 21 1
20 48 3
21 22 2
21 49 5
22 23 1
22 50 5
23 24 3
23 51 3
24 25 2
24 52 2
25 26 2
25 53 3
26 27 4
26 54 5
27 28 2
27 55 2
28 56 1
29 30 3
29 57 3
30 31 4
30 58 1
31 32 2
31 59 1
32 33 3
32 60 4
33 34 5
33 61 4
34 35 2
34 62 4
35 36 4
35 63 2
36 37 5
36 64 2
37 38 2
37 65 3
38 39 3
38 66 1
39 40 5
39 67 5
40 41 5
40 68 2
41 42 3
41 69 4
42 43 1
42 70 2
43 44 2
43 71 4
44 45 5
44 72 4
45 46 3
45 73 5
46 47 2
46 74 2
47 48 4
47 75 4
48 49 3
48 76 5
49 50 4
49 77 1
50 51 3
50 78 1
51 52 4
51 79 5
52 53 1
52 80 4
53 54 1
53 81 1
54 55 1
54 82 2
55 56 5
55 83 1
56 84 2
57 58 1
57 85 2
58 59 1
58 86 3
59 60 2
59 87 5
60 61 3
60 88 4
61 62 5
61 89 1
62 63 3
62 90 1
63 64 3
63 91 5
64 65 5
64 92 3
65 66 2
65 93 3
66 67 2
66 94 3
67 68 5
67 95 4
68 69 5
68 96 1
69 70 1
69 97 4
70 71 3
70 98 1
71 72 4
71 99 5
72 73 5
72 100 1
73 74 5
73 101 4
74 75 1
74 102 5
75 76 1
75 103 1
76 77 3
76 104 1
77 78 4
77 105 2
78 79 4
78 106 1
79 80 1
79 107 2
80 81 1
80 108 3
81 82 4
81 109 1
82 83 5
82 110 1
83 84 1
83 111 3
84 112 3
85 86 5
85 113 2
86 87 5
86 114 4
87 88 5
87 115 3
88 89 4
88 116 1
89 90 4
89 117 3
90 91 4
90 118 4
91 92 3
91 119 4
92 93 2
92 120 3
93 94 2
93 121 2
94 95 3
94 122 1
95 96 1
95 123 1
96 97 3
96 124 4
97 98 1
97 125 1
98 99 4
98 126 3
99 100 5
99 127 3
100 101 5
100 128 1
101 102 4
101 129 1
102 103 4
102 130 4
103 104 2
103 131 2
104 105 5
104 132 5
105 106 4
105 133 5
106 107 5
106 134 4
107 108 4
107 135 3
108 109 2
108 136 4
109 110 3
109 137 5
110 111 1
110 138 2
111 112 1
111 139 1
112 140 2
113 114 4
113 141 5
114 115 1
114 142 4
115 116 3
115 143 2
116 117 1
116 144 5
117 118 2
117 145 2
118 119 1
118 146 1
119 120 1
119 147 2
120 121 1
120 148 2
121 122 4
121 149 5
122 123 2
122 150 1
123 124 5
123 151 4
124 125 5
124 152 5
125 126 2
125 153 3
126 127 4
126 154 2
127 128 3
127 155 1
128 129 4
128 156 3
129 130 4
129 157 3
130 131 4
130 158 1
131 132 2
131 159 5
132 133 1
132 160 3
133 134 2
133 161 3
134 135 3
134 162 3
135 136 5
135 163 3
136 137 2
136 164 4
137 138 2
137 165 5
138 139 1
138 166 1
139 140 2
139 167 2
140 168 3
141 142 2
141 169 4
142 143 5
142 170 4
143 144 4
143 171 3
144 145 5
144 172 4
145 146 4
145 173 4
146 147 5
146 174 4
147 148 1
147 175 4
148 149 2
148 176 1
149 150 2
149 177 1
150 151 3
150 178 3
151 152 4
151 179 1
152 153 5
152 180 4
153 154 3
153 181 5
154 155 1
154 182 2
155 156 2
155 183 5
156 157 4
156 184 3
157 158 5
157 185 3
158 159 5
158 186 2
159 160 2
159 187 5
160 161 4
160 188 1
161 162 1
161 189 5
162 163 2
162 190 5
163 164 2
163 191 4
164 165 1
164 192 2
165 166 5
165 193 2
166 167 2
166 194 3
167 168 2
167 195 5
168 196 3
169 170 2
169 197 4
170 171 1
170 198 5
171 172 5
171 199 5
172 173 3
172 200 5
173 174 3
173 201 5
174 175 1
174 202 5
175 176 5
175 203 3
176 177 3
176 204 5
177 178 5
177 205 2
178 179 3
178 206 3
179 180 4
179 207 2
180 181 4
180 208 2
181 182 5
181 209 3
182 183 1
182 210 1
183 184 3
183 211 4
184 185 4
184 212 5
185 186 3
185 213 2
186 187 5
186 214 4
187 188 5
187 215 5
188 189 1
188 216 5
189 190 1
189 217 3
190 191 4
190 218 4
191 192 3
191 219 1
192 193 5
192 220 2
193 194 4
193 221 4
194 195 5
194 222 3
195 196 1
195 223 5
196 224 5
197 198 3
197 225 1
198 199 1
198 226 5
199 200 1
199 227 2
200 201 2
200 228 1
201 202 3
201 229 4
202 203 4
202 230 2
203 204 2
203 231 1
204 205 3
204 232 4
205 206 1
205 233 5
206 207 2
206 234 5
207 208 4
207 235 5
208 209 3
208 236 4
209 210 2
209 237 5
210 211 3
210 238 2
211 212 5
211 239 3
212 213 1
212 240 5
213 214 4
213 241 3
214 215 5
214 242 5
215 216 4
215 243 3
216 217 5
216 244 5
217 218 4
217 245 2
218 219 2
218 246 1
219 220 4
219 247 1
220 221 1
220 248 2
221 222 1
221 249 4
222 223 1
222 250 4
223 224 5
223 251 2
224 252 3
225 226 2
225 253 3
226 227 2
226 254 1
227 228 1
227 255 3
228 229 3
228 256 1
229 230 2
229 257 5
230 231 5
230 258 3
231 232 3
231 259 1
232 233 1
232 260 2
233 234 2
233 261 1
234 235 4
234 262 2
235 236 2
235 263 5
236 237 3
236 264 1
237 238 3
237 265 2
238 239 5
238 266 3
239 240 5
239 267 2
240 241 2
240 268 1
241 242 4
241 269 3
242 243 5
242 270 4
243 244 1
243 271 2
244 245 3
244 272 4
245 246 5
245 273 1
246 247 2
246 274 4
247 248 2
247 275 1
248 249 1
248 276 4
249 250 4
249 277 5
250 251 1
250 278 4
251 252 4
251 279 1
252 280 2
253 254 3
253 281 1
254 255 4
254 282 2
255 256 1
255 283 4
256 257 4
256 284 4
257 258 2
257 285 2
258 259 3
258 286 2
259 260 5
259 287 1
260 261 2
260 288 3
261 262 3
261 289 5
262 263 2
262 290 1
263 264 3
263 291 4
264 265 1
264 292 3
265 266 1
265 293 5
266 267 3
266 294 1
267 268 5
267 295 3
268 269 1
268 296 4
269 270 3
269 297 3
270 271 2
270 298 2
271 272 1
271 299 2
272 273 2
272 300 4
273 274 5
273 301 1
274 275 5
274 302 5
275 276 2
275 303 5
276 277 4
276 304 5
277 278 3
277 305 4
278 279 4
278 306 4
279 280 5
279 307 3
280 308 4
281 282 1
281 309 4
282 283 4
282 310 5
283 284 1
283 311 3
284 285 1
284 312 3
285 286 2
285 313 5
286 287 2
286 314 2
287 288 3
287 315 4
288 289 1
288 316 2
289 290 3
289 317 5
290 291 3
290 318 2
291 292 5
291 319 5
292 293 1
292 320 2
293 294 5
293 321 2
294 295 3
294 322 3
295 296 3
295 323 5
296 297 4
296 324 2
297 298 1
297 325 4
298 299 4
298 326 3
299 300 4
299 327 3
300 301 2
300 328 2
301 302 4
301 329 4
302 303 1
302 330 3
303 304 5
303 331 5
304 305 4
304 332 1
305 306 3
305 333 5
306 307 2
306 334 4
307 308 5
307 335 3
308 336 3
309 310 5
309 337 5
310 311 3
310 338 4
311 312 1
311 339 1
312 313 4
312 340 3
313 314 1
313 341 2
314 315 2
314 342 3
315 316 5
315 343 2
316 317 2
316 344 4
317 318 4
317 345 3
318 319 2
318 346 5
319 320 4
319 347 3
320 321 1
320 348 5
321 322 4
321 349 3
322 323 4
322 350 3
323 324 5
323 351 1
324 325 1
324 352 4
325 326 1
325 353 5
326 327 3
326 354 2
327 328 2
327 355 2
328 329 2
328 356 3
329 330 2
329 357 4
330 331 5
330 358 5
331 332 4
331 359 1
332 333 4
332 360 3
333 334 2
333 361 5
334 335 2
334 362 2
335 336 3
335 363 1
336 364 2
337 338 5
337 365 3
338 339 4
338 366 1
339 340 1
339 367 3
340 341 2
340 368 1
341 342 4
341 369 1
342 343 2
342 370 4
343 344 1
343 371 5
344 345 4
344 372 5
345 346 1
345 373 5
346 347 2
346 374 5
347 348 2
347 375 2
348 349 2
348 376 1
349 350 2
349 377 2
350 351 5
350 378 4
351 352 4
351 379 1
352 353 5
352 380 2
353 354 1
353 381 2
354 355 4
354 382 2
355 356 4
355 383 3
356 357 1
356 384 3
357 358 1
357 385 4
358 359 2
358 386 5
359 360 2
359 387 4
360 361 5
360 388 3
361 362 5
361 389 3
362 363 3
362 390 2
363 364 1
363 391 4
364 392 5
365 366 4
365 393 2
366 367 1
366 394 5
367 368 5
367 395 2
368 369 2
368 396 1
369 370 2
369 397 3
370 371 5
370 398 1
371 372 5
371 399 5
372 373 3
372 400 5
373 374 2
373 401 1
374 375 3
374 402 2
375 376 5
375 403 5
376 377 3
376 404 4
377 378 2
377 405 2
378 379 3
378 406 3
379 380 3
379 407 2
380 381 4
380 408 3
381 382 5
381 409 5
382 383 1
382 410 2
383 384 4
383 411 1
384 385 4
384 412 2
385 386 5
385 413 2
386 387 4
386 414 3
387 388 4
387 415 1
388 389 3
388 416 5
389 390 4
389 417 1
390 391 3
390 418 2
391 392 4
391 419 5
392 420 1
393 394 3
393 421 5
394 395 5
394 422 4
395 396 1
395 423 2
396 397 4
396 424 4
397 398 2
397 425 3
398 399 5
398 426 1
399 400 4
399 427 1
400 401 1
400 428 2
401 402 5
401 429 5
402 403 3
402 430 4
403 404 1
403 431 4
404 405 5
404 432 4
405 406 4
405 433 2
406 407 1
406 434 4
407 408 3
407 435 2
408 409 2
408 436 4
409 410 4
409 437 2
410 411 3
410 438 1
411 412 1
411 439 5
412 413 3
412 440 3
413 414 3
413 441 1
414 415 2
414 442 3
415 416 4
415 443 1
416 417 5
416 444 1
417 418 4
417 445 1
418 419 3
418 446 1
419 420 5
419 447 1
420 448 1
421 422 1
421 449 2
422 423 1
422 450 4
423 424 4
423 451 2
424 425 3
424 452 5
425 426 4
425 453 3
426 427 4
426 454 5
427 428 3
427 455 3
428 429 2
428 456 5
429 430 3
429 457 5
430 431 4
430 458 1
431 432 2
431 459 2
432 433 1
432 460 3
433 434 3
433 461 2
434 435 1
434 462 1
435 436 1
435 463 4
436 437 1
436 464 3
437 438 2
437 465 2
438 439 2
438 466 1
439 440 4
439 467 5
440 441 2
440 468 3
441 442 3
441 469 5
442 443 1
442 470 3
443 444 3
443 471 5
444 445 1
444 472 2
445 446 4
445 473 2
446 447 5
446 474 2
447 448 4
447 475 3
448 476 4
449 450 2
449 477 5
450 451 3
450 478 4
451 452 1
451 479 1
452 453 3
452 480 4
453 454 3
453 481 3
454 455 5
454 482 5
455 456 3
455 483 2
456 457 3
456 484 1
457 458 2
457 485 5
458 459 2
458 486 2
459 460 4
459 487 5
460 461 3
460 488 4
461 462 4
461 489 5
462 463 5
462 490 4
463 464 4
463 491 5
464 465 3
464 492 4
465 466 4
465 493 3
466 467 5
466 494 1
467 468 2
467 495 2
468 469 1
468 496 4
469 470 1
469 497 2
470 471 3
470 498 5
471 472 3
471 499 4
472 473 1
472 500 4
473 474 1
473 501 1
474 475 4
474 502 5
475 476 1
475 503 2
476 504 3
477 478 4
477 505 1
478 479 1
478 506 1
479 480 3
479 507 3
480 481 3
480 508 1
481 482 2
481 509 4
482 483 2
482 510 1
483 484 5
483 511 3
484 485 3
484 512 5
485 486 4
485 513 2
486 487 4
486 514 2
487 488 1
487 515 3
488 489 3
488 516 2
489 490 5
489 517 3
490 491 3
490 518 2
491 492 3
491 519 4
492 493 2
492 520 1
493 494 3
493 521 2
494 495 1
494 522 3
495 496 3
495 523 2
496 497 5
496 524 4
497 498 2
497 525 4
498 499 5
498 526 3
499 500 4
499 527 2
500 501 2
500 528 3
501 502 2
501 529 2
502 503 5
502 530 1
503 504 2
503 531 3
504 532 3
505 506 3
505 533 3
506 507 2
506 534 1
507 508 5
507 535 2
508 509 2
508 536 5
509 510 2
509 537 3
510 511 5
510 538 3
511 512 4
511 539 4
512 513 2
512 540 2
513 514 2
513 541 2
514 515 4
514 542 5
515 516 4
515 543 3
516 517 2
516 544 2
517 518 2
517 545 2
518 519 4
518 546 4
519 520 2
519 547 5
520 521 1
520 548 4
521 522 3
521 549 2
522 523 1
522 550 1
523 524 1
523 551 5
524 525 2
524 552 1
525 526 3
525 553 3
526 527 2
526 554 2
527 528 2
527 555 2
528 529 1
528 556 5
529 530 5
529 557 2
530 531 3
530 558 1
531 532 5
531 559 2
532 560 2
533 534 2
533 561 1
534 535 5
534 562 1
535 536 2
535 563 5
536 537 5
536 564 4
537 538 5
537 565 2
538 539 5
538 566 2
539 540 5
539 567 2
540 541 4
540 568 5
541 542 5
541 569 2
542 543 5
542 570 1
543 544 3
543 571 2
544 545 5
544 572 1
545 546 3
545 573 1
546 547 4
546 574 1
547 548 4
547 575 2
548 549 4
548 576 3
549 550 5
549 577 2
550 551 1
550 578 3
551 552 1
551 579 1
552 553 3
552 580 1
553 554 1
553 581 3
554 555 1
554 582 4
555 556 1
555 583 3
556 557 3
556 584 2
557 558 4
557 585 5
558 559 3
558 586 2
559 560 5
559 587 5
560 588 3
561 562 5
561 589 3
562 563 5
562 590 4
563 564 4
563 591 1
564 565 2
564 592 3
565 566 5
565 593 3
566 567 1
566 594 2
567 568 1
567 595 2
568 569 3
568 596 4
569 570 1
569 597 1
570 571 2
570 598 2
571 572 3
571 599 4
572 573 3
572 600 1
573 574 5
573 601 5
574 575 3
574 602 3
575 576 4
575 603 5
576 577 4
576 604 5
577 578 2
577 605 1
578 579 2
578 606 5
579 580 4
579 607 5
580 581 5
580 608 1
581 582 5
581 609 2
582 583 1
582 610 3
583 584 2
583 611 3
584 585 2
584 612 5
585 586 4
585 613 1
586 587 3
586 614 1
587 588 1
587 615 4
588 616 3
589 590 1
589 617 1
590 591 1
590 618 1
591 592 2
591 619 4
592 593 1
592 620 3
593 594 2
593 621 5
594 595 5
594 622 2
595 596 4
595 623 3
596 597 4
596 624 1
597 598 4
597 625 5
598 599 1
598 626 4
599 600 1
599 627 4
600 601 3
600 628 5
601 602 1
601 629 4
602 603 2
602 630 1
603 604 5
603 631 5
604 605 2
604 632 5
605 606 4
605 633 5
606 607 2
606 634 4
607 608 5
607 635 4
608 609 1
608 636 1
609 610 4
609 637 4
610 611 5
610 638 2
611 612 3
611 639 1
612 613 3
612 640 4
613 614 5
613 641 5
614 615 5
614 642 3
615 616 4
615 643 3
616 644 3
617 618 4
617 645 1
618 619 4
618 646 2
619 620 2
619 647 2
620 621 3
620 648 3
621 622 1
621 649 1
622 623 2
622 650 5
623 624 1
623 651 3
624 625 1
624 652 4
625 626 1
625 653 4
626 627 2
626 654 1
627 628 5
627 655 5
628 629 4
628 656 4
629 630 5
629 657 2
630 631 4
630 658 1
631 632 5
631 659 1
632 633 5
632 660 2
633 634 1
633 661 5
634 635 4
634 662 5
635 636 2
635 663 4
636 637 5
636 664 4
637 638 3
637 665 5
638 639 3
638 666 5
639 640 2
639 667 5
640 641 5
640 668 1
641 642 1
641 669 1
642 643 4
642 670 2
643 644 1
643 671 2
644 672 5
645 646 1
645 673 1
646 647 5
646 674 3
647 648 4
647 675 4
648 649 1
648 676 1
649 650 2
649 677 1
650 651 1
650 678 5
651 652 5
651 679 2
652 653 5
652 680 4
653 654 2
653 681 1
654 655 5
654 682 4
655 656 4
655 683 5
656 657 4
656 684 4
657 658 5
657 685 2
658 659 1
658 686 3
659 660 1
659 687 4
660 661 1
660 688 5
661 662 4
661 689 5
662 663 1
662 690 1
663 664 5
663 691 1
664 665 1
664 692 3
665 666 3
665 693 4
666 667 2
666 694 5
667 668 1
667 695 1
668 669 4
668 696 1
669 670 1
669 697 5
670 671 2
670 698 5
671 672 3
671 699 3
672 700 2
673 674 2
673 701 1
674 675 4
674 702 2
675 676 5
675 703 1
676 677 5
676 704 5
677 678 1
677 705 2
678 679 5
678 706 4
679 680 1
679 707 1
680 681 2
680 708 2
681 682 2
681 709 2
682 683 3
682 710 2
683 684 4
683 711 4
684 685 3
684 712 3
685 686 2
685 713 3
686 687 4
686 714 5
687 688 3
687 715 3
688 689 4
688 716 2
689 690 3
689 717 3
690 691 4
690 718 4
691 692 2
691 719 2
692 693 1
692 720 2
693 694 2
693 721 5
694 695 2
694 722 3
695 696 5
695 723 1
696 697 2
696 724 4
697 698 2
697 725 2
698 699 5
698 726 5
699 700 4
699 727 2
700 728 2
701 702 3
701 729 5
702 703 3
702 730 2
703 704 5
703 731 4
704 705 3
704 732 3
705 706 3
705 733 4
706 707 3
706 734 1
707 708 4
707 735 4
708 709 4
708 736 1
709 710 2
709 737 4
710 711 5
710 738 1
711 712 4
711 739 2
712 713 5
712 740 1
713 714 5
713 741 1
714 715 3
714 742 1
715 716 1
715 743 5
716 717 3
716 744 4
717 718 5
717 745 5
718 719 3
718 746 3
719 720 2
719 747 5
720 721 3
720 748 4
721 722 4
721 749 4
722 723 1
722 750 2
723 724 2
723 751 2
724 725 5
724 752 3
725 726 2
725 753 5
726 727 3
726 754 1
727 728 5
727 755 1
728 756 2
729 730 3
729 757 1
730 731 5
730 758 4
731 732 3
731 759 1
732 733 2
732 760 4
733 734 1
733 761 3
734 735 1
734 762 5
735 736 3
735 763 3
736 737 4
736 764 4
737 738 1
737 765 1
738 739 4
738 766 2
739 740 1
739 767 5
740 741 5
740 768 2
741 742 3
741 769 1
742 743 5
742 770 4
743 744 1
743 771 5
744 745 5
744 772 1
745 746 1
745 773 2
746 747 2
746 774 4
747 748 1
747 775 1
748 749 4
748 776 3
749 750 1
749 777 2
750 751 3
750 778 3
751 752 2
751 779 4
752 753 2
752 780 4
753 754 2
753 781 3
754 755 1
754 782 5
755 756 5
755 783 5
756 784 5
757 758 4
758 759 2
759 760 3
760 761 3
761 762 3
762 763 4
763 764 2
764 765 5
765 766 4
766 767 1
767 768 2
768 769 4
769 770 2
770 771 2
771 772 1
772 773 4
773 774 5
774 775 3
775 776 2
776 777 1
777 778 5
778 779 5
779 780 2
780 781 5
781 782 1
782 783 3
783 784 5
1 757 4
2 758 4
3 759 2
4 760 3
5 761 4
6 762 5
7 763 1
8 764 5
9 765 1
10 766 4
11 767 2
12 768 2
13 769 4
14 770 1
15 771 2
16 772 5
17 773 3
18 774 3
19 775 4
20 776 4
21 777 5
22 778 2
23 779 1
24 780 4
25 781 2
26 782 5
27 783 3
28 784 1
1 28 3
29 56 5
57 84 2
85 112 1
113 140 1
141 168 5
169 196 1
197 224 2
225 252 5
253 280 2
281 308 1
309 336 4
337 364 3
365 392 1
393 420 5
421 448 4
449 476 1
477 504 2
505 532 3
533 560 1
561 588 3
589 616 4
617 644 2
645 672 1
673 700 2
701 728 4
729 756 1
757 784 2
